100
237 104 397 155 67 402 918 801 766 222 537 277 173 107 215 928 829 807 801 194 310 627 732 855 881 87 606 672 506 178 474 90 935 866 548 301 909 573 883 849 509 414 599 432 162 306 813 44 47 627 281 535 472 343 998 196 413 203 633 277 356 747 321 559 905 101 62 229 766 616 238 332 178 460 43 698 896 955 735 960 19 289 967 776 411 944 621 818 294 192 445 137 382 962 332 10 45 170 784 363 
237 102 396 153 66 402 918 801 765 222 537 276 171 105 213 927 828 807 801 192 309 627 732 855 879 87 606 672 504 177 474 90 933 864 546 300 909 573 882 849 507 414 597 432 162 306 813 42 45 627 279 534 471 342 996 195 411 201 633 276 354 747 321 558 903 99 60 228 765 615 237 330 177 459 42 696 894 954 735 960 18 288 966 774 411 942 621 816 294 192 444 135 381 960 330 9 45 168 783 363 
23881
